unsat
(:SPACER-conj                         1
 :SPACER-inductive-gen                26
 :SPACER-inductive-gen-weaken-fail    26
 :SPACER-inductive-level              11
 :SPACER-max-depth                    13
 :SPACER-max-query-lvl                13
 :SPACER-non-local-gen                28
 :SPACER-num-active-lemmas            16
 :SPACER-num-ctp-blocked              16
 :SPACER-num-invariants               9
 :SPACER-num-is_invariant             90
 :SPACER-num-lemmas                   68
 :SPACER-num-pobs                     23
 :SPACER-num-propagations             21
 :SPACER-num-queries                  49
 :SPACER-num-reach-queries            1
 :SPACER-num-reuse-reach-facts        1
 :SPACER-subsume-failed               1
 :SPACER-subsume-pob                  2
 :SPACER-subsume-success              2
 :added-eqs                           8684
 :arith-assert-diseq                  2302
 :arith-assert-lower                  12584
 :arith-assert-upper                  12358
 :arith-bound-prop                    442
 :arith-conflicts                     184
 :arith-eq-adapter                    1612
 :arith-fixed-eqs                     1844
 :arith-num-rows                      78
 :arith-offset-eqs                    414
 :arith-pivots                        864
 :arith-row-summations                4590
 :arith-tableau-max-columns           164
 :arith-tableau-max-rows              78
 :conflicts                           670
 :decisions                           8604
 :del-clause                          684
 :final-checks                        224
 :iuc_solver.num_proxies              80
 :max-memory                          32.56
 :memory                              32.02
 :minimized-lits                      30
 :mk-bool-var                         4342
 :mk-clause                           2360
 :num-allocs                          49934447
 :num-checks                          610
 :pool_solver.checks                  305
 :pool_solver.checks.sat              28
 :pool_solver.checks.undef            84
 :propagations                        49020
 :rlimit-count                        268213
 :time                                0.26
 :time.iuc_solver.get_iuc             0.03
 :time.iuc_solver.get_iuc.hyp_reduce1 0.01
 :time.iuc_solver.get_iuc.hyp_reduce2 0.01
 :time.iuc_solver.get_iuc.learn_core  0.01
 :time.pool_solver.proof              0.01
 :time.pool_solver.smt.total          0.09
 :time.pool_solver.smt.total.sat      0.01
 :time.pool_solver.smt.total.undef    0.03
 :time.spacer.init_rules              0.00
 :time.spacer.mbp                     0.01
 :time.spacer.solve                   0.24
 :time.spacer.solve.propagate         0.04
 :time.spacer.solve.reach             0.20
 :time.spacer.solve.reach.children    0.02
 :time.spacer.solve.reach.cluster     0.02
 :time.spacer.solve.reach.gen.global  0.02
 :time.spacer.solve.reach.gen.ind     0.01)
(:max-memory   32.56
 :memory       32.02
 :num-allocs   49934447
 :rlimit-count 268213
 :time         0.26
 :total-time   0.28)
